50

99 5 304
96 14 293
96 12 289
96 2 354
95 3 344
95 28 360
94 3 311
90 17 299
90 23 347
88 14 341
87 27 267
84 23 268
82 21 334
78 18 302
77 4 246
77 8 302
77 7 301
75 3 317
75 9 317
70 7 318
70 20 251
69 8 258
68 6 344
56 3 354
54 2 312
53 7 342
53 7 228
50 2 337
50 14 308
49 1 279
48 10 343
47 7 336
45 11 342
38 9 275
36 1 286
35 6 228
34 6 137
28 1 340
25 1 357
21 7 229
19 1 138
18 5 166
16 4 225
13 3 311
13 3 112
7 3 27
7 2 185
6 2 279
3 1 292
3 1 228
